50
22081

374 137
879 465
296 903
460 805
738 581
872 692
976 359
606 628
617 572
628 931
179 455
703 95
272 199
993 499
832 267
328 32
708 821
464 336
38 18
150 788
536 326
859 407
704 748
673 16
927 133
685 831
156 771
927 429
941 981
961 230
929 648
356 936
2 457
429 295
268 937
149 187
299 503
204 704
985 992
246 657
727 232
363 338
111 561
865 389
306 643
163 116
646 977
452 956
653 591
353 28
